20
1	96	61	51	76
6	63	44	90	50
9	61	86	83	21
5	12	12	17	8
4	15	76	98	84
10	91	2	99	99
3	52	5	53	35
4	69	34	60	83
2	50	28	12	40
2	64	68	60	42
1	103	26	89	11
7	61	28	29	32
10	107	17	94	57
10	8	34	27	26
10	27	27	96	27
1	36	10	90	67
5	80	81	61	72
1	62	57	77	18
10	85	32	8	83
6	71	13	29	16
